c nIsolatedPIs 0
c maxPI 16
p cnf 345 988
c gate 17 8 13 0
8 -17 0
13 -17 0
-8 -13 17 0
c gate 18 7 10 0
7 -18 0
10 -18 0
-7 -10 18 0
c gate 19 8 9 0
8 -19 0
9 -19 0
-8 -9 19 0
c gate 20 18 19 0
18 -20 0
19 -20 0
-18 -19 20 0
c gate 21 6 11 0
6 -21 0
11 -21 0
-6 -11 21 0
c gate 22 -18 -19 0
-18 -22 0
-19 -22 0
18 19 22 0
c gate 23 -20 -22 0
-20 -23 0
-22 -23 0
20 22 23 0
c gate 24 21 23 0
21 -24 0
23 -24 0
-21 -23 24 0
c gate 25 -20 -24 0
-20 -25 0
-24 -25 0
20 24 25 0
c gate 26 8 10 0
8 -26 0
10 -26 0
-8 -10 26 0
c gate 27 7 11 0
7 -27 0
11 -27 0
-7 -11 27 0
c gate 28 -26 -27 0
-26 -28 0
-27 -28 0
26 27 28 0
c gate 29 26 27 0
26 -29 0
27 -29 0
-26 -27 29 0
c gate 30 -28 -29 0
-28 -30 0
-29 -30 0
28 29 30 0
c gate 31 -25 30 0
-25 -31 0
30 -31 0
25 -30 31 0
c gate 32 4 14 0
4 -32 0
14 -32 0
-4 -14 32 0
c gate 33 6 12 0
6 -33 0
12 -33 0
-6 -12 33 0
c gate 34 5 13 0
5 -34 0
13 -34 0
-5 -13 34 0
c gate 35 -33 -34 0
-33 -35 0
-34 -35 0
33 34 35 0
c gate 36 33 34 0
33 -36 0
34 -36 0
-33 -34 36 0
c gate 37 -35 -36 0
-35 -37 0
-36 -37 0
35 36 37 0
c gate 38 32 37 0
32 -38 0
37 -38 0
-32 -37 38 0
c gate 39 -32 -37 0
-32 -39 0
-37 -39 0
32 37 39 0
c gate 40 -38 -39 0
-38 -40 0
-39 -40 0
38 39 40 0
c gate 41 25 -30 0
25 -41 0
-30 -41 0
-25 30 41 0
c gate 42 -31 -41 0
-31 -42 0
-41 -42 0
31 41 42 0
c gate 43 40 42 0
40 -43 0
42 -43 0
-40 -42 43 0
c gate 44 -31 -43 0
-31 -44 0
-43 -44 0
31 43 44 0
c gate 45 5 14 0
5 -45 0
14 -45 0
-5 -14 45 0
c gate 46 6 13 0
6 -46 0
13 -46 0
-6 -13 46 0
c gate 47 7 12 0
7 -47 0
12 -47 0
-7 -12 47 0
c gate 48 -46 -47 0
-46 -48 0
-47 -48 0
46 47 48 0
c gate 49 46 47 0
46 -49 0
47 -49 0
-46 -47 49 0
c gate 50 -48 -49 0
-48 -50 0
-49 -50 0
48 49 50 0
c gate 51 45 50 0
45 -51 0
50 -51 0
-45 -50 51 0
c gate 52 -45 -50 0
-45 -52 0
-50 -52 0
45 50 52 0
c gate 53 -51 -52 0
-51 -53 0
-52 -53 0
51 52 53 0
c gate 54 8 11 0
8 -54 0
11 -54 0
-8 -11 54 0
c gate 55 -18 54 0
-18 -55 0
54 -55 0
18 -54 55 0
c gate 56 53 55 0
53 -56 0
55 -56 0
-53 -55 56 0
c gate 57 -53 -55 0
-53 -57 0
-55 -57 0
53 55 57 0
c gate 58 -56 -57 0
-56 -58 0
-57 -58 0
56 57 58 0
c gate 59 -44 58 0
-44 -59 0
58 -59 0
44 -58 59 0
c gate 60 3 16 0
3 -60 0
16 -60 0
-3 -16 60 0
c gate 61 4 15 0
4 -61 0
15 -61 0
-4 -15 61 0
c gate 62 -36 -38 0
-36 -62 0
-38 -62 0
36 38 62 0
c gate 63 61 -62 0
61 -63 0
-62 -63 0
-61 62 63 0
c gate 64 -61 62 0
-61 -64 0
62 -64 0
61 -62 64 0
c gate 65 -63 -64 0
-63 -65 0
-64 -65 0
63 64 65 0
c gate 66 60 65 0
60 -66 0
65 -66 0
-60 -65 66 0
c gate 67 -60 -65 0
-60 -67 0
-65 -67 0
60 65 67 0
c gate 68 -66 -67 0
-66 -68 0
-67 -68 0
66 67 68 0
c gate 69 44 -58 0
44 -69 0
-58 -69 0
-44 58 69 0
c gate 70 -59 -69 0
-59 -70 0
-69 -70 0
59 69 70 0
c gate 71 68 70 0
68 -71 0
70 -71 0
-68 -70 71 0
c gate 72 -59 -71 0
-59 -72 0
-71 -72 0
59 71 72 0
c gate 73 4 16 0
4 -73 0
16 -73 0
-4 -16 73 0
c gate 74 5 15 0
5 -74 0
15 -74 0
-5 -15 74 0
c gate 75 -49 -51 0
-49 -75 0
-51 -75 0
49 51 75 0
c gate 76 74 -75 0
74 -76 0
-75 -76 0
-74 75 76 0
c gate 77 -74 75 0
-74 -77 0
75 -77 0
74 -75 77 0
c gate 78 -76 -77 0
-76 -78 0
-77 -78 0
76 77 78 0
c gate 79 73 78 0
73 -79 0
78 -79 0
-73 -78 79 0
c gate 80 -73 -78 0
-73 -80 0
-78 -80 0
73 78 80 0
c gate 81 -79 -80 0
-79 -81 0
-80 -81 0
79 80 81 0
c gate 82 -29 -56 0
-29 -82 0
-56 -82 0
29 56 82 0
c gate 83 6 14 0
6 -83 0
14 -83 0
-6 -14 83 0
c gate 84 7 13 0
7 -84 0
13 -84 0
-7 -13 84 0
c gate 85 8 12 0
8 -85 0
12 -85 0
-8 -12 85 0
c gate 86 -84 -85 0
-84 -86 0
-85 -86 0
84 85 86 0
c gate 87 84 85 0
84 -87 0
85 -87 0
-84 -85 87 0
c gate 88 -86 -87 0
-86 -88 0
-87 -88 0
86 87 88 0
c gate 89 83 88 0
83 -89 0
88 -89 0
-83 -88 89 0
c gate 90 -83 -88 0
-83 -90 0
-88 -90 0
83 88 90 0
c gate 91 -89 -90 0
-89 -91 0
-90 -91 0
89 90 91 0
c gate 92 -82 91 0
-82 -92 0
91 -92 0
82 -91 92 0
c gate 93 82 -91 0
82 -93 0
-91 -93 0
-82 91 93 0
c gate 94 -92 -93 0
-92 -94 0
-93 -94 0
92 93 94 0
c gate 95 81 94 0
81 -95 0
94 -95 0
-81 -94 95 0
c gate 96 -81 -94 0
-81 -96 0
-94 -96 0
81 94 96 0
c gate 97 -95 -96 0
-95 -97 0
-96 -97 0
95 96 97 0
c gate 98 -72 97 0
-72 -98 0
97 -98 0
72 -97 98 0
c gate 99 -63 -66 0
-63 -99 0
-66 -99 0
63 66 99 0
c gate 100 72 -97 0
72 -100 0
-97 -100 0
-72 97 100 0
c gate 101 -98 -100 0
-98 -101 0
-100 -101 0
98 100 101 0
c gate 102 -99 101 0
-99 -102 0
101 -102 0
99 -101 102 0
c gate 103 -98 -102 0
-98 -103 0
-102 -103 0
98 102 103 0
c gate 104 17 -103 0
17 -104 0
-103 -104 0
-17 103 104 0
c gate 105 -17 103 0
-17 -105 0
103 -105 0
17 -103 105 0
c gate 106 -104 -105 0
-104 -106 0
-105 -106 0
104 105 106 0
c gate 107 -92 -95 0
-92 -107 0
-95 -107 0
92 95 107 0
c gate 108 7 14 0
7 -108 0
14 -108 0
-7 -14 108 0
c gate 109 6 15 0
6 -109 0
15 -109 0
-6 -15 109 0
c gate 110 108 -109 0
108 -110 0
-109 -110 0
-108 109 110 0
c gate 111 -108 109 0
-108 -111 0
109 -111 0
108 -109 111 0
c gate 112 -110 -111 0
-110 -112 0
-111 -112 0
110 111 112 0
c gate 113 -76 -79 0
-76 -113 0
-79 -113 0
76 79 113 0
c gate 114 -87 -89 0
-87 -114 0
-89 -114 0
87 89 114 0
c gate 115 5 16 0
5 -115 0
16 -115 0
-5 -16 115 0
c gate 116 114 -115 0
114 -116 0
-115 -116 0
-114 115 116 0
c gate 117 -114 115 0
-114 -117 0
115 -117 0
114 -115 117 0
c gate 118 -116 -117 0
-116 -118 0
-117 -118 0
116 117 118 0
c gate 119 113 -118 0
113 -119 0
-118 -119 0
-113 118 119 0
c gate 120 -113 118 0
-113 -120 0
118 -120 0
113 -118 120 0
c gate 121 -119 -120 0
-119 -121 0
-120 -121 0
119 120 121 0
c gate 122 112 121 0
112 -122 0
121 -122 0
-112 -121 122 0
c gate 123 -112 -121 0
-112 -123 0
-121 -123 0
112 121 123 0
c gate 124 -122 -123 0
-122 -124 0
-123 -124 0
122 123 124 0
c gate 125 107 -124 0
107 -125 0
-124 -125 0
-107 124 125 0
c gate 126 -107 124 0
-107 -126 0
124 -126 0
107 -124 126 0
c gate 127 -125 -126 0
-125 -127 0
-126 -127 0
125 126 127 0
c gate 128 106 127 0
106 -128 0
127 -128 0
-106 -127 128 0
c gate 129 -106 -127 0
-106 -129 0
-127 -129 0
106 127 129 0
c gate 130 -128 -129 0
-128 -130 0
-129 -130 0
128 129 130 0
c gate 131 5 11 0
5 -131 0
11 -131 0
-5 -11 131 0
c gate 132 6 10 0
6 -132 0
10 -132 0
-6 -10 132 0
c gate 133 7 9 0
7 -133 0
9 -133 0
-7 -9 133 0
c gate 134 132 133 0
132 -134 0
133 -134 0
-132 -133 134 0
c gate 135 -132 -133 0
-132 -135 0
-133 -135 0
132 133 135 0
c gate 136 -134 -135 0
-134 -136 0
-135 -136 0
134 135 136 0
c gate 137 131 136 0
131 -137 0
136 -137 0
-131 -136 137 0
c gate 138 -131 -136 0
-131 -138 0
-136 -138 0
131 136 138 0
c gate 139 -137 -138 0
-137 -139 0
-138 -139 0
137 138 139 0
c gate 140 5 10 0
5 -140 0
10 -140 0
-5 -10 140 0
c gate 141 6 9 0
6 -141 0
9 -141 0
-6 -9 141 0
c gate 142 -140 -141 0
-140 -142 0
-141 -142 0
140 141 142 0
c gate 143 140 141 0
140 -143 0
141 -143 0
-140 -141 143 0
c gate 144 -142 -143 0
-142 -144 0
-143 -144 0
142 143 144 0
c gate 145 4 11 0
4 -145 0
11 -145 0
-4 -11 145 0
c gate 146 144 -145 0
144 -146 0
-145 -146 0
-144 145 146 0
c gate 147 -142 -146 0
-142 -147 0
-146 -147 0
142 146 147 0
c gate 148 139 147 0
139 -148 0
147 -148 0
-139 -147 148 0
c gate 149 2 14 0
2 -149 0
14 -149 0
-2 -14 149 0
c gate 150 3 13 0
3 -150 0
13 -150 0
-3 -13 150 0
c gate 151 4 12 0
4 -151 0
12 -151 0
-4 -12 151 0
c gate 152 -150 -151 0
-150 -152 0
-151 -152 0
150 151 152 0
c gate 153 150 151 0
150 -153 0
151 -153 0
-150 -151 153 0
c gate 154 -152 -153 0
-152 -154 0
-153 -154 0
152 153 154 0
c gate 155 149 154 0
149 -155 0
154 -155 0
-149 -154 155 0
c gate 156 -149 -154 0
-149 -156 0
-154 -156 0
149 154 156 0
c gate 157 -155 -156 0
-155 -157 0
-156 -157 0
155 156 157 0
c gate 158 -139 -147 0
-139 -158 0
-147 -158 0
139 147 158 0
c gate 159 -148 -158 0
-148 -159 0
-158 -159 0
148 158 159 0
c gate 160 157 159 0
157 -160 0
159 -160 0
-157 -159 160 0
c gate 161 -148 -160 0
-148 -161 0
-160 -161 0
148 160 161 0
c gate 162 3 14 0
3 -162 0
14 -162 0
-3 -14 162 0
c gate 163 5 12 0
5 -163 0
12 -163 0
-5 -12 163 0
c gate 164 4 13 0
4 -164 0
13 -164 0
-4 -13 164 0
c gate 165 -163 -164 0
-163 -165 0
-164 -165 0
163 164 165 0
c gate 166 163 164 0
163 -166 0
164 -166 0
-163 -164 166 0
c gate 167 -165 -166 0
-165 -167 0
-166 -167 0
165 166 167 0
c gate 168 162 167 0
162 -168 0
167 -168 0
-162 -167 168 0
c gate 169 -162 -167 0
-162 -169 0
-167 -169 0
162 167 169 0
c gate 170 -168 -169 0
-168 -170 0
-169 -170 0
168 169 170 0
c gate 171 -134 -137 0
-134 -171 0
-137 -171 0
134 137 171 0
c gate 172 -21 -23 0
-21 -172 0
-23 -172 0
21 23 172 0
c gate 173 -24 -172 0
-24 -173 0
-172 -173 0
24 172 173 0
c gate 174 -171 173 0
-171 -174 0
173 -174 0
171 -173 174 0
c gate 175 171 -173 0
171 -175 0
-173 -175 0
-171 173 175 0
c gate 176 -174 -175 0
-174 -176 0
-175 -176 0
174 175 176 0
c gate 177 170 176 0
170 -177 0
176 -177 0
-170 -176 177 0
c gate 178 -170 -176 0
-170 -178 0
-176 -178 0
170 176 178 0
c gate 179 -177 -178 0
-177 -179 0
-178 -179 0
177 178 179 0
c gate 180 -161 179 0
-161 -180 0
179 -180 0
161 -179 180 0
c gate 181 1 16 0
1 -181 0
16 -181 0
-1 -16 181 0
c gate 182 2 15 0
2 -182 0
15 -182 0
-2 -15 182 0
c gate 183 -153 -155 0
-153 -183 0
-155 -183 0
153 155 183 0
c gate 184 182 -183 0
182 -184 0
-183 -184 0
-182 183 184 0
c gate 185 -182 183 0
-182 -185 0
183 -185 0
182 -183 185 0
c gate 186 -184 -185 0
-184 -186 0
-185 -186 0
184 185 186 0
c gate 187 181 186 0
181 -187 0
186 -187 0
-181 -186 187 0
c gate 188 -181 -186 0
-181 -188 0
-186 -188 0
181 186 188 0
c gate 189 -187 -188 0
-187 -189 0
-188 -189 0
187 188 189 0
c gate 190 161 -179 0
161 -190 0
-179 -190 0
-161 179 190 0
c gate 191 -180 -190 0
-180 -191 0
-190 -191 0
180 190 191 0
c gate 192 189 191 0
189 -192 0
191 -192 0
-189 -191 192 0
c gate 193 -180 -192 0
-180 -193 0
-192 -193 0
180 192 193 0
c gate 194 2 16 0
2 -194 0
16 -194 0
-2 -16 194 0
c gate 195 3 15 0
3 -195 0
15 -195 0
-3 -15 195 0
c gate 196 -166 -168 0
-166 -196 0
-168 -196 0
166 168 196 0
c gate 197 195 -196 0
195 -197 0
-196 -197 0
-195 196 197 0
c gate 198 -195 196 0
-195 -198 0
196 -198 0
195 -196 198 0
c gate 199 -197 -198 0
-197 -199 0
-198 -199 0
197 198 199 0
c gate 200 194 199 0
194 -200 0
199 -200 0
-194 -199 200 0
c gate 201 -194 -199 0
-194 -201 0
-199 -201 0
194 199 201 0
c gate 202 -200 -201 0
-200 -202 0
-201 -202 0
200 201 202 0
c gate 203 -174 -177 0
-174 -203 0
-177 -203 0
174 177 203 0
c gate 204 -40 -42 0
-40 -204 0
-42 -204 0
40 42 204 0
c gate 205 -43 -204 0
-43 -205 0
-204 -205 0
43 204 205 0
c gate 206 -203 205 0
-203 -206 0
205 -206 0
203 -205 206 0
c gate 207 203 -205 0
203 -207 0
-205 -207 0
-203 205 207 0
c gate 208 -206 -207 0
-206 -208 0
-207 -208 0
206 207 208 0
c gate 209 202 208 0
202 -209 0
208 -209 0
-202 -208 209 0
c gate 210 -202 -208 0
-202 -210 0
-208 -210 0
202 208 210 0
c gate 211 -209 -210 0
-209 -211 0
-210 -211 0
209 210 211 0
c gate 212 -193 211 0
-193 -212 0
211 -212 0
193 -211 212 0
c gate 213 -184 -187 0
-184 -213 0
-187 -213 0
184 187 213 0
c gate 214 193 -211 0
193 -214 0
-211 -214 0
-193 211 214 0
c gate 215 -212 -214 0
-212 -215 0
-214 -215 0
212 214 215 0
c gate 216 -213 215 0
-213 -216 0
215 -216 0
213 -215 216 0
c gate 217 -212 -216 0
-212 -217 0
-216 -217 0
212 216 217 0
c gate 218 -197 -200 0
-197 -218 0
-200 -218 0
197 200 218 0
c gate 219 -206 -209 0
-206 -219 0
-209 -219 0
206 209 219 0
c gate 220 -68 -70 0
-68 -220 0
-70 -220 0
68 70 220 0
c gate 221 -71 -220 0
-71 -221 0
-220 -221 0
71 220 221 0
c gate 222 -219 221 0
-219 -222 0
221 -222 0
219 -221 222 0
c gate 223 219 -221 0
219 -223 0
-221 -223 0
-219 221 223 0
c gate 224 -222 -223 0
-222 -224 0
-223 -224 0
222 223 224 0
c gate 225 -218 224 0
-218 -225 0
224 -225 0
218 -224 225 0
c gate 226 218 -224 0
218 -226 0
-224 -226 0
-218 224 226 0
c gate 227 -225 -226 0
-225 -227 0
-226 -227 0
225 226 227 0
c gate 228 -217 227 0
-217 -228 0
227 -228 0
217 -227 228 0
c gate 229 -157 -159 0
-157 -229 0
-159 -229 0
157 159 229 0
c gate 230 -160 -229 0
-160 -230 0
-229 -230 0
160 229 230 0
c gate 231 4 10 0
4 -231 0
10 -231 0
-4 -10 231 0
c gate 232 5 9 0
5 -232 0
9 -232 0
-5 -9 232 0
c gate 233 231 232 0
231 -233 0
232 -233 0
-231 -232 233 0
c gate 234 3 11 0
3 -234 0
11 -234 0
-3 -11 234 0
c gate 235 -231 -232 0
-231 -235 0
-232 -235 0
231 232 235 0
c gate 236 -233 -235 0
-233 -236 0
-235 -236 0
233 235 236 0
c gate 237 234 236 0
234 -237 0
236 -237 0
-234 -236 237 0
c gate 238 -233 -237 0
-233 -238 0
-237 -238 0
233 237 238 0
c gate 239 -144 145 0
-144 -239 0
145 -239 0
144 -145 239 0
c gate 240 -146 -239 0
-146 -240 0
-239 -240 0
146 239 240 0
c gate 241 238 240 0
238 -241 0
240 -241 0
-238 -240 241 0
c gate 242 -238 -240 0
-238 -242 0
-240 -242 0
238 240 242 0
c gate 243 -241 -242 0
-241 -243 0
-242 -243 0
241 242 243 0
c gate 244 1 14 0
1 -244 0
14 -244 0
-1 -14 244 0
c gate 245 2 13 0
2 -245 0
13 -245 0
-2 -13 245 0
c gate 246 3 12 0
3 -246 0
12 -246 0
-3 -12 246 0
c gate 247 -245 -246 0
-245 -247 0
-246 -247 0
245 246 247 0
c gate 248 245 246 0
245 -248 0
246 -248 0
-245 -246 248 0
c gate 249 -247 -248 0
-247 -249 0
-248 -249 0
247 248 249 0
c gate 250 244 249 0
244 -250 0
249 -250 0
-244 -249 250 0
c gate 251 -244 -249 0
-244 -251 0
-249 -251 0
244 249 251 0
c gate 252 -250 -251 0
-250 -252 0
-251 -252 0
250 251 252 0
c gate 253 243 -252 0
243 -253 0
-252 -253 0
-243 252 253 0
c gate 254 -241 -253 0
-241 -254 0
-253 -254 0
241 253 254 0
c gate 255 230 254 0
230 -255 0
254 -255 0
-230 -254 255 0
c gate 256 1 15 0
1 -256 0
15 -256 0
-1 -15 256 0
c gate 257 -248 -250 0
-248 -257 0
-250 -257 0
248 250 257 0
c gate 258 256 -257 0
256 -258 0
-257 -258 0
-256 257 258 0
c gate 259 -256 257 0
-256 -259 0
257 -259 0
256 -257 259 0
c gate 260 -258 -259 0
-258 -260 0
-259 -260 0
258 259 260 0
c gate 261 -230 -254 0
-230 -261 0
-254 -261 0
230 254 261 0
c gate 262 -255 -261 0
-255 -262 0
-261 -262 0
255 261 262 0
c gate 263 260 262 0
260 -263 0
262 -263 0
-260 -262 263 0
c gate 264 -255 -263 0
-255 -264 0
-263 -264 0
255 263 264 0
c gate 265 -189 -191 0
-189 -265 0
-191 -265 0
189 191 265 0
c gate 266 -192 -265 0
-192 -266 0
-265 -266 0
192 265 266 0
c gate 267 -264 266 0
-264 -267 0
266 -267 0
264 -266 267 0
c gate 268 264 -266 0
264 -268 0
-266 -268 0
-264 266 268 0
c gate 269 -267 -268 0
-267 -269 0
-268 -269 0
267 268 269 0
c gate 270 258 269 0
258 -270 0
269 -270 0
-258 -269 270 0
c gate 271 -267 -270 0
-267 -271 0
-270 -271 0
267 270 271 0
c gate 272 213 -215 0
213 -272 0
-215 -272 0
-213 215 272 0
c gate 273 -216 -272 0
-216 -273 0
-272 -273 0
216 272 273 0
c gate 274 -271 273 0
-271 -274 0
273 -274 0
271 -273 274 0
c gate 275 217 -227 0
217 -275 0
-227 -275 0
-217 227 275 0
c gate 276 -274 -275 0
-274 -276 0
-275 -276 0
274 275 276 0
c gate 277 -228 276 0
-228 -277 0
276 -277 0
228 -276 277 0
c gate 278 -222 -225 0
-222 -278 0
-225 -278 0
222 225 278 0
c gate 279 99 -101 0
99 -279 0
-101 -279 0
-99 101 279 0
c gate 280 -102 -279 0
-102 -280 0
-279 -280 0
102 279 280 0
c gate 281 -278 -280 0
-278 -281 0
-280 -281 0
278 280 281 0
c gate 282 278 280 0
278 -282 0
280 -282 0
-278 -280 282 0
c gate 283 -281 -282 0
-281 -283 0
-282 -283 0
281 282 283 0
c gate 284 271 -273 0
271 -284 0
-273 -284 0
-271 273 284 0
c gate 285 3 10 0
3 -285 0
10 -285 0
-3 -10 285 0
c gate 286 4 9 0
4 -286 0
9 -286 0
-4 -9 286 0
c gate 287 285 286 0
285 -287 0
286 -287 0
-285 -286 287 0
c gate 288 2 11 0
2 -288 0
11 -288 0
-2 -11 288 0
c gate 289 -285 -286 0
-285 -289 0
-286 -289 0
285 286 289 0
c gate 290 -287 -289 0
-287 -290 0
-289 -290 0
287 289 290 0
c gate 291 288 290 0
288 -291 0
290 -291 0
-288 -290 291 0
c gate 292 -287 -291 0
-287 -292 0
-291 -292 0
287 291 292 0
c gate 293 -234 -236 0
-234 -293 0
-236 -293 0
234 236 293 0
c gate 294 -237 -293 0
-237 -294 0
-293 -294 0
237 293 294 0
c gate 295 -292 294 0
-292 -295 0
294 -295 0
292 -294 295 0
c gate 296 1 13 0
1 -296 0
13 -296 0
-1 -13 296 0
c gate 297 2 12 0
2 -297 0
12 -297 0
-2 -12 297 0
c gate 298 296 297 0
296 -298 0
297 -298 0
-296 -297 298 0
c gate 299 -296 -297 0
-296 -299 0
-297 -299 0
296 297 299 0
c gate 300 -298 -299 0
-298 -300 0
-299 -300 0
298 299 300 0
c gate 301 292 -294 0
292 -301 0
-294 -301 0
-292 294 301 0
c gate 302 -295 -301 0
-295 -302 0
-301 -302 0
295 301 302 0
c gate 303 300 302 0
300 -303 0
302 -303 0
-300 -302 303 0
c gate 304 -295 -303 0
-295 -304 0
-303 -304 0
295 303 304 0
c gate 305 -243 252 0
-243 -305 0
252 -305 0
243 -252 305 0
c gate 306 -253 -305 0
-253 -306 0
-305 -306 0
253 305 306 0
c gate 307 -304 -306 0
-304 -307 0
-306 -307 0
304 306 307 0
c gate 308 304 306 0
304 -308 0
306 -308 0
-304 -306 308 0
c gate 309 -307 -308 0
-307 -309 0
-308 -309 0
307 308 309 0
c gate 310 298 309 0
298 -310 0
309 -310 0
-298 -309 310 0
c gate 311 -307 -310 0
-307 -311 0
-310 -311 0
307 310 311 0
c gate 312 -260 -262 0
-260 -312 0
-262 -312 0
260 262 312 0
c gate 313 -263 -312 0
-263 -313 0
-312 -313 0
263 312 313 0
c gate 314 -311 313 0
-311 -314 0
313 -314 0
311 -313 314 0
c gate 315 311 -313 0
311 -315 0
-313 -315 0
-311 313 315 0
c gate 316 -298 -309 0
-298 -316 0
-309 -316 0
298 309 316 0
c gate 317 -310 -316 0
-310 -317 0
-316 -317 0
310 316 317 0
c gate 318 -288 -290 0
-288 -318 0
-290 -318 0
288 290 318 0
c gate 319 -291 -318 0
-291 -319 0
-318 -319 0
291 318 319 0
c gate 320 3 9 0
3 -320 0
9 -320 0
-3 -9 320 0
c gate 321 2 10 0
2 -321 0
10 -321 0
-2 -10 321 0
c gate 322 320 321 0
320 -322 0
321 -322 0
-320 -321 322 0
c gate 323 -320 -321 0
-320 -323 0
-321 -323 0
320 321 323 0
c gate 324 1 11 0
1 -324 0
11 -324 0
-1 -11 324 0
c gate 325 -323 324 0
-323 -325 0
324 -325 0
323 -324 325 0
c gate 326 -322 -325 0
-322 -326 0
-325 -326 0
322 325 326 0
c gate 327 319 -326 0
319 -327 0
-326 -327 0
-319 326 327 0
c gate 328 1 12 0
1 -328 0
12 -328 0
-1 -12 328 0
c gate 329 -319 326 0
-319 -329 0
326 -329 0
319 -326 329 0
c gate 330 -327 -329 0
-327 -330 0
-329 -330 0
327 329 330 0
c gate 331 328 330 0
328 -331 0
330 -331 0
-328 -330 331 0
c gate 332 -327 -331 0
-327 -332 0
-331 -332 0
327 331 332 0
c gate 333 -300 -302 0
-300 -333 0
-302 -333 0
300 302 333 0
c gate 334 -303 -333 0
-303 -334 0
-333 -334 0
303 333 334 0
c gate 335 -332 334 0
-332 -335 0
334 -335 0
332 -334 335 0
c gate 336 317 335 0
317 -336 0
335 -336 0
-317 -335 336 0
c gate 337 -315 336 0
-315 -337 0
336 -337 0
315 -336 337 0
c gate 338 -314 -337 0
-314 -338 0
-337 -338 0
314 337 338 0
c gate 339 -258 -269 0
-258 -339 0
-269 -339 0
258 269 339 0
c gate 340 -270 -339 0
-270 -340 0
-339 -340 0
270 339 340 0
c gate 341 -338 340 0
-338 -341 0
340 -341 0
338 -340 341 0
c gate 342 -284 341 0
-284 -342 0
341 -342 0
284 -341 342 0
c gate 343 -283 342 0
-283 -343 0
342 -343 0
283 -342 343 0
c gate 344 277 343 0
277 -344 0
343 -344 0
-277 -343 344 0
c gate 345 -130 344 0
-130 -345 0
344 -345 0
130 -344 345 0
c PO
345 0
